Sun 20 May 09:06:06 CEST 2018
CPXPARAM_TimeLimit                               45
CPXPARAM_Threads                                 4
CPXPARAM_MIP_Strategy_CallbackReducedLP          0
Tried aggregator 3 times.
MIP Presolve eliminated 1968 rows and 2043 columns.
MIP Presolve modified 5647 coefficients.
Aggregator did 11296 substitutions.
Reduced MIP has 12586 rows, 8087 columns, and 26844 nonzeros.
Reduced MIP has 7541 binaries, 6 generals, 0 SOSs, and 540 indicators.
Presolve time = 0.13 sec. (287.76 ticks)
Found incumbent of value 21.000000 after 0.17 sec. (316.19 ticks)
Probing time = 0.18 sec. (81.25 ticks)
Tried aggregator 2 times.
Aggregator did 5932 substitutions.
Reduced MIP has 6654 rows, 2155 columns, and 14980 nonzeros.
Reduced MIP has 1609 binaries, 546 generals, 0 SOSs, and 540 indicators.
Presolve time = 0.02 sec. (21.19 ticks)
Probing time = 0.04 sec. (21.61 ticks)
Tried aggregator 1 time.
Reduced MIP has 6654 rows, 2155 columns, and 14980 nonzeros.
Reduced MIP has 1609 binaries, 546 generals, 0 SOSs, and 540 indicators.
Presolve time = 0.01 sec. (11.83 ticks)
Probing time = 0.01 sec. (4.69 ticks)
Clique table members: 22944.
MIP emphasis: balance optimality and feasibility.
MIP search method: dynamic search.
Parallel mode: deterministic, using up to 4 threads.
Root relaxation solution time = 0.04 sec. (41.87 ticks)

        Nodes                                         Cuts/
   Node  Left     Objective  IInf  Best Integer    Best Bound    ItCnt     Gap

*     0+    0                           21.0000        0.0000           100.00%
      0     0        0.0000   735       21.0000        0.0000      558  100.00%
*     0+    0                           10.0000        0.0000           100.00%
      0     0        0.0000   529       10.0000 Cliques: 1763      868   50.00%
      0     0        0.0000   467       10.0000 Cliques: 1763     1187   40.00%

Repeating presolve.
Tried aggregator 3 times.
MIP Presolve eliminated 4888 rows and 1338 columns.
MIP Presolve modified 4 coefficients.
Aggregator did 7 substitutions.
Reduced MIP has 1784 rows, 650 columns, and 4039 nonzeros.
Reduced MIP has 504 binaries, 146 generals, 0 SOSs, and 115 indicators.
Presolve time = 0.01 sec. (13.26 ticks)
Probing time = 0.01 sec. (9.93 ticks)
Tried aggregator 1 time.
MIP Presolve eliminated 2 rows and 2 columns.
Reduced MIP has 1782 rows, 648 columns, and 4035 nonzeros.
Reduced MIP has 502 binaries, 146 generals, 0 SOSs, and 115 indicators.
Presolve time = 0.00 sec. (3.41 ticks)
Represolve time = 0.07 sec. (117.66 ticks)
Probing time = 0.00 sec. (2.99 ticks)
Clique table members: 2538.
MIP emphasis: balance optimality and feasibility.
MIP search method: dynamic search.
Parallel mode: deterministic, using up to 4 threads.
Root relaxation solution time = 0.01 sec. (12.06 ticks)

        Nodes                                         Cuts/
   Node  Left     Objective  IInf  Best Integer    Best Bound    ItCnt     Gap

*     0+    0                           10.0000        6.0000            40.00%
      0     0        0.0000   129       10.0000        6.0000     1385   40.00%
      0     0        0.0000   155       10.0000      Cuts: 48     1396   40.00%
      0     0        0.0000   109       10.0000      Cuts: 53     1461   40.00%
      0     0        0.0000   104       10.0000     Cuts: 355     1487   40.00%
      0     0        0.0000   131       10.0000     Cuts: 185     1523   40.00%
      0     2        0.0000   131       10.0000        6.0000     1523   40.00%
Elapsed time = 7.65 sec. (5315.76 ticks, tree = 0.01 MB, solutions = 2)
    161    85    infeasible             10.0000        6.0000    12332   40.00%

Clique cuts applied:  88
Implied bound cuts applied:  346
Zero-half cuts applied:  88
Gomory fractional cuts applied:  1

Root node processing (before b&c):
  Real time             =    7.65 sec. (5315.31 ticks)
Parallel b&c, 4 threads:
  Real time             =    0.49 sec. (468.79 ticks)
  Sync time (average)   =    0.07 sec.
  Wait time (average)   =    0.00 sec.
                          ------------
Total (root+branch&cut) =    8.14 sec. (5784.10 ticks)
   | W
 L | 0 1 2 3 4 
--------------
 0 | 1 1 1 1 1 
 1 | 1 1 1 1 1 
 2 | 2 2 2 2 2 
 3 | 2 2 2 2 2 
 4 | 3 3 3 3 3 
 5 | 3 3 3 3 3 
 6 | 4 4 4 4 4 
 7 | 4 4 4 4 4 
 8 | 5 5 5 5 5 
 9 | 5 5 5 5 5 
10 | . . . . . 
11 | . . . . . 
12 | . . . . . 
13 | . . . . . 
14 | . . . . . 
15 | . . . . . 
16 | . . . . . 
17 | . . . . . 
18 | . . . . . 
19 | . . . . . 
20 | . . . . . 
21 | . . . . . 
22 | . . . . . 
23 | . . . . . 
24 | . . . . . 

Boxes' corners:      (w,l)
    Box 1 is at 
        top left     (0,0)
        bottom right (4,1)

    Box 2 is at 
        top left     (0,2)
        bottom right (4,3)

    Box 3 is at 
        top left     (0,4)
        bottom right (4,5)

    Box 4 is at 
        top left     (0,6)
        bottom right (4,7)

    Box 5 is at 
        top left     (0,8)
        bottom right (4,9)

    Roll length used: 10
In 31.2 seconds
